p cnf 43 40
-1 4 30 31 32 40 0 
-2 40 0 
-3 23 24 33 34 38 40 0 
-4 1 30 31 32 40 0 
-5 6 7 8 9 10 11 12 13 14 15 16 17 18 19 20 21 22 35 37 40 0 
-6 5 7 8 9 10 11 12 13 14 15 16 17 18 19 20 21 22 35 37 40 0 
-7 5 6 8 9 10 11 12 13 14 15 16 17 18 19 20 21 22 35 37 40 0 
-8 5 6 7 9 10 11 12 13 14 15 16 17 18 19 20 21 22 35 37 40 0 
-9 5 6 7 8 10 11 12 13 14 15 16 17 18 19 20 21 22 35 37 40 0 
-10 5 6 7 8 9 11 12 13 14 15 16 17 18 19 20 21 22 35 37 40 0 
-11 5 6 7 8 9 10 12 13 14 15 16 17 18 19 20 21 22 35 37 40 0 
-12 5 6 7 8 9 10 11 13 14 15 16 17 18 19 20 21 22 35 37 40 0 
-13 5 6 7 8 9 10 11 12 14 15 16 17 18 19 20 21 22 35 37 40 0 
-14 5 6 7 8 9 10 11 12 13 15 16 17 18 19 20 21 22 35 37 40 0 
-15 5 6 7 8 9 10 11 12 13 14 16 17 18 19 20 21 22 35 37 40 0 
-16 5 6 7 8 9 10 11 12 13 14 15 17 18 19 20 21 22 35 37 40 0 
-17 5 6 7 8 9 10 11 12 13 14 15 16 18 19 20 21 22 35 37 40 0 
-18 5 6 7 8 9 10 11 12 13 14 15 16 17 19 20 21 22 35 37 40 0 
-19 5 6 7 8 9 10 11 12 13 14 15 16 17 18 20 21 22 35 37 40 0 
-20 5 6 7 8 9 10 11 12 13 14 15 16 17 18 19 21 22 35 37 40 0 
-21 5 6 7 8 9 10 11 12 13 14 15 16 17 18 19 20 22 35 37 40 0 
-22 5 6 7 8 9 10 11 12 13 14 15 16 17 18 19 20 21 35 37 40 0 
-23 3 24 33 34 38 40 0 
-24 3 23 33 34 38 40 0 
-25 26 27 28 29 40 0 
-26 25 27 28 29 40 0 
-27 25 26 28 29 40 0 
-28 25 26 27 29 40 0 
-29 25 26 27 28 40 0 
-30 1 4 31 32 40 0 
-31 1 4 30 32 40 0 
-32 1 4 30 31 40 0 
-33 3 23 24 34 38 40 0 
-34 3 23 24 33 38 40 0 
-35 5 6 7 8 9 10 11 12 13 14 15 16 17 18 19 20 21 22 37 40 0 
-36 40 0 
-37 5 6 7 8 9 10 11 12 13 14 15 16 17 18 19 20 21 22 35 40 0 
-38 3 23 24 33 34 41 0 
-39 42 0 
-39 43 0 
